c
c Renamed file of pcler8.cnf 
c Variables are renamed according to left2right.ord 
c
c Date: Thu Apr 29 14:50:08 PDT 2004 by (jinbo)
c Host: Linux solution 2.4.18-4smp #1 SMP Thu May 2 18:32:34 EDT 2002 i686 unknown
c
c Copyright (c) 2001 Fadi A. Aloul.
c
p cnf 98 220
73 -72 0
76 -72 0
77 -72 0
72 -73 -76 -77 0
-72 48 0
-48 72 0
18 -19 0
17 -19 0
19 -18 -17 0
-19 27 0
-27 19 0
25 -26 0
17 -26 0
26 -25 -17 0
-26 28 0
-28 26 0
23 -24 0
17 -24 0
24 -23 -17 0
-24 29 0
-29 24 0
9 -10 0
17 -10 0
10 -9 -17 0
-10 11 0
-11 10 0
1 -2 0
17 -2 0
2 -1 -17 0
-2 3 0
-3 2 0
20 -21 0
17 -21 0
21 -20 -17 0
-21 22 0
-22 21 0
13 -14 0
17 -14 0
14 -13 -17 0
-14 15 0
-15 14 0
5 -6 0
17 -6 0
6 -5 -17 0
-6 7 0
-7 6 0
27 -30 0
30 -27 0
-30 37 0
39 -38 0
48 -38 0
38 -39 -48 0
-38 37 0
-65 -62 0
77 -62 0
62 65 -77 0
-62 37 0
-37 30 38 62 0
28 -35 0
35 -28 0
-35 45 0
48 -44 0
43 -44 0
44 -48 -43 0
-44 45 0
77 -63 0
-65 -63 0
66 -63 0
63 -77 65 -66 0
-63 45 0
77 -64 0
65 -64 0
-66 -64 0
64 -77 -65 66 0
-64 45 0
-45 35 44 63 64 0
29 -31 0
31 -29 0
-31 42 0
48 -41 0
40 -41 0
41 -48 -40 0
-41 42 0
77 -70 0
-71 -70 0
69 -70 0
70 -77 71 -69 0
-70 42 0
77 -68 0
71 -68 0
-69 -68 0
68 -77 -71 69 0
-68 42 0
-42 31 41 70 68 0
11 -12 0
12 -11 0
-12 60 0
48 -56 0
55 -56 0
56 -48 -55 0
-56 60 0
77 -84 0
-87 -84 0
86 -84 0
84 -77 87 -86 0
-84 60 0
77 -85 0
87 -85 0
-86 -85 0
85 -77 -87 86 0
-85 60 0
-60 12 56 84 85 0
3 -4 0
4 -3 0
-4 58 0
48 -49 0
50 -49 0
49 -48 -50 0
-49 58 0
77 -89 0
-92 -89 0
91 -89 0
89 -77 92 -91 0
-89 58 0
77 -90 0
92 -90 0
-91 -90 0
90 -77 -92 91 0
-90 58 0
-58 4 49 89 90 0
22 -36 0
36 -22 0
-36 61 0
48 -54 0
53 -54 0
54 -48 -53 0
-54 61 0
77 -94 0
-97 -94 0
96 -94 0
94 -77 97 -96 0
-94 61 0
77 -95 0
97 -95 0
-96 -95 0
95 -77 -97 96 0
-95 61 0
-61 36 54 94 95 0
15 -16 0
16 -15 0
-16 57 0
48 -52 0
51 -52 0
52 -48 -51 0
-52 57 0
77 -78 0
-80 -78 0
82 -78 0
78 -77 80 -82 0
-78 57 0
77 -79 0
80 -79 0
-82 -79 0
79 -77 -80 82 0
-79 57 0
-57 16 52 78 79 0
7 -8 0
8 -7 0
-8 59 0
48 -47 0
46 -47 0
47 -48 -46 0
-47 59 0
77 -75 0
-73 -75 0
76 -75 0
75 -77 73 -76 0
-75 59 0
77 -74 0
73 -74 0
-76 -74 0
74 -77 -73 76 0
-74 59 0
-59 8 47 75 74 0
-17 -34 0
32 -34 0
-33 -34 0
34 17 -32 33 0
-34 77 0
-77 34 0
92 -93 0
91 -93 0
93 -92 -91 0
-93 96 0
-96 93 0
80 -81 0
82 -81 0
81 -80 -82 0
-81 76 0
-76 81 0
71 -83 0
69 -83 0
83 -71 -69 0
-83 86 0
-86 83 0
97 -98 0
96 -98 0
98 -97 -96 0
-98 82 0
-82 98 0
65 -67 0
66 -67 0
67 -65 -66 0
-67 69 0
-69 67 0
87 -88 0
86 -88 0
88 -87 -86 0
-88 91 0
-91 88 0
